Minimize
  3000 y0 + 2100 y1 + 3000 y2 + 2100 y3 + 3000 y4 + 2100 y5 + 2100 y6
   + 3000 y7 + 2100 y8 + 2100 y9 + 264.4844040770647 x_(0,0,2,2)_0_1
   + 330.6055050963308 x_(0,0,0,2)_1_1 + 330.6055050963308 x_(0,0,0,2)_2_1
   + 264.4844040770647 x_(0,0,2,2)_3_1 + 264.4844040770647 x_(0,0,2,2)_4_1
   + 330.6055050963308 x_(0,0,0,2)_5_1 + 304.7950130825634 x_(0,1,1,2)_8_1
   + 1131.073595286965 x_(0,1,3,2)_8_1 + 331.3171219946131 x_(0,1,4,2)_8_1
   + 746.3243262818116 x_(0,3,3,2)_8_1 + 715.897427685445 x_(0,3,4,2)_8_1
   + 219.3171219946131 x_(0,4,4,2)_8_1 + 534.6026561849463 x_(0,0,0,4)_0_3
   + 534.6026561849463 x_(0,0,0,4)_1_3 + 427.6821249479571 x_(0,0,4,4)_2_3
   + 534.6026561849463 x_(0,0,0,4)_3_3 + 427.6821249479571 x_(0,0,4,4)_4_3
   + 427.6821249479571 x_(0,0,4,4)_5_3 + 140 x_(0,1,1,4)_6_3
   + 463.1531324606638 x_(0,1,2,4)_6_3 + 1005.474651118693 x_(0,1,3,4)_6_3
   + 219.3171219946131 x_(0,2,2,4)_6_3 + 1217.784843138989 x_(0,2,3,4)_6_3
   + 620.7253821135398 x_(0,3,3,4)_6_3 + 243.8360104660508 x_(1,1,2,2)_0_4
   + 304.7950130825634 x_(1,1,1,2)_1_4 + 304.7950130825634 x_(1,1,1,2)_2_4
   + 330.6055050963308 x_(1,0,0,2)_5_4 + 1457.244856299056 x_(1,0,3,2)_5_4
   + 646.9992469425702 x_(1,0,4,2)_5_4 + 746.3243262818116 x_(1,3,3,2)_5_4
   + 715.897427685445 x_(1,3,4,2)_5_4 + 219.3171219946131 x_(1,4,4,2)_5_4
   + 243.8360104660508 x_(1,1,2,2)_6_4 + 243.8360104660508 x_(1,1,2,2)_7_4
   + 304.7950130825634 x_(1,1,1,2)_8_4 + 140 x_(1,1,1,4)_0_6
   + 140 x_(1,1,1,4)_1_6 + 112 x_(1,1,4,4)_2_6
   + 534.6026561849463 x_(1,0,0,4)_3_6 + 483.8015260716777 x_(1,0,2,4)_3_6
   + 1331.645912130784 x_(1,0,3,4)_3_6 + 219.3171219946131 x_(1,2,2,4)_3_6
   + 1217.784843138989 x_(1,2,3,4)_3_6 + 620.7253821135398 x_(1,3,3,4)_3_6
   + 140 x_(1,1,1,4)_6_6 + 112 x_(1,1,4,4)_7_6 + 112 x_(1,1,4,4)_8_6
   + 534.6026561849463 x_(3,0,0,4)_0_9 + 596.0701700396553 x_(3,0,1,4)_0_9
   + 483.8015260716777 x_(3,0,2,4)_0_9 + 140 x_(3,1,1,4)_0_9
   + 463.1531324606638 x_(3,1,2,4)_0_9 + 219.3171219946131 x_(3,2,2,4)_0_9
   + 620.7253821135398 x_(3,3,3,4)_1_9 + 620.7253821135398 x_(3,3,3,4)_3_9
   + 496.5803056908319 x_(3,3,4,4)_5_9 + 620.7253821135398 x_(3,3,3,4)_6_9
   + 496.5803056908319 x_(3,3,4,4)_8_9 + 496.5803056908319 x_(3,3,4,4)_9_9
Subject To
 c1_0_0: x_(0,0,1,1)_0_0 = 1
 c1_0_1: x_(0,0,1,1)_1_0 = 1
 c1_0_2: x_(0,0,1,1)_2_0 = 1
 c1_0_3: x_(0,0,0,1)_3_0 = 1
 c1_0_4: x_(0,0,0,1)_4_0 = 1
 c1_0_5: x_(0,0,0,1)_5_0 = 1
 c1_0_6: x_(0,1,1,1)_6_0 = 1
 c1_0_7: x_(0,1,1,1)_7_0 = 1
 c1_0_8: x_(0,1,1,1)_8_0 = 1
 c1_0_9: x_(0,2,2,1)_9_0 + x_(0,2,3,1)_9_0 + x_(0,2,4,1)_9_0
   + x_(0,3,3,1)_9_0 + x_(0,3,4,1)_9_0 + x_(0,4,4,1)_9_0 = 1
 c1_1_0: x_(0,0,2,2)_0_1 = 1
 c1_1_1: x_(0,0,0,2)_1_1 = 1
 c1_1_2: x_(0,0,0,2)_2_1 = 1
 c1_1_3: x_(0,0,2,2)_3_1 = 1
 c1_1_4: x_(0,0,2,2)_4_1 = 1
 c1_1_5: x_(0,0,0,2)_5_1 = 1
 c1_1_6: x_(0,2,2,2)_6_1 = 1
 c1_1_7: x_(0,2,2,2)_7_1 = 1
 c1_1_8: x_(0,1,1,2)_8_1 + x_(0,1,3,2)_8_1 + x_(0,1,4,2)_8_1
   + x_(0,3,3,2)_8_1 + x_(0,3,4,2)_8_1 + x_(0,4,4,2)_8_1 = 1
 c1_1_9: x_(0,2,2,2)_9_1 = 1
 c1_2_0: x_(0,0,0,3)_0_2 = 1
 c1_2_1: x_(0,0,3,3)_1_2 = 1
 c1_2_2: x_(0,0,0,3)_2_2 = 1
 c1_2_3: x_(0,0,3,3)_3_2 = 1
 c1_2_4: x_(0,0,0,3)_4_2 = 1
 c1_2_5: x_(0,0,3,3)_5_2 = 1
 c1_2_6: x_(0,3,3,3)_6_2 = 1
 c1_2_7: x_(0,1,1,3)_7_2 + x_(0,1,2,3)_7_2 + x_(0,1,4,3)_7_2
   + x_(0,2,2,3)_7_2 + x_(0,2,4,3)_7_2 + x_(0,4,4,3)_7_2 = 1
 c1_2_8: x_(0,3,3,3)_8_2 = 1
 c1_2_9: x_(0,3,3,3)_9_2 = 1
 c1_3_0: x_(0,0,0,4)_0_3 = 1
 c1_3_1: x_(0,0,0,4)_1_3 = 1
 c1_3_2: x_(0,0,4,4)_2_3 = 1
 c1_3_3: x_(0,0,0,4)_3_3 = 1
 c1_3_4: x_(0,0,4,4)_4_3 = 1
 c1_3_5: x_(0,0,4,4)_5_3 = 1
 c1_3_6: x_(0,1,1,4)_6_3 + x_(0,1,2,4)_6_3 + x_(0,1,3,4)_6_3
   + x_(0,2,2,4)_6_3 + x_(0,2,3,4)_6_3 + x_(0,3,3,4)_6_3 = 1
 c1_3_7: x_(0,4,4,4)_7_3 = 1
 c1_3_8: x_(0,4,4,4)_8_3 = 1
 c1_3_9: x_(0,4,4,4)_9_3 = 1
 c1_4_0: x_(1,1,2,2)_0_4 = 1
 c1_4_1: x_(1,1,1,2)_1_4 = 1
 c1_4_2: x_(1,1,1,2)_2_4 = 1
 c1_4_3: x_(1,2,2,2)_3_4 = 1
 c1_4_4: x_(1,2,2,2)_4_4 = 1
 c1_4_5: x_(1,0,0,2)_5_4 + x_(1,0,3,2)_5_4 + x_(1,0,4,2)_5_4
   + x_(1,3,3,2)_5_4 + x_(1,3,4,2)_5_4 + x_(1,4,4,2)_5_4 = 1
 c1_4_6: x_(1,1,2,2)_6_4 = 1
 c1_4_7: x_(1,1,2,2)_7_4 = 1
 c1_4_8: x_(1,1,1,2)_8_4 = 1
 c1_4_9: x_(1,2,2,2)_9_4 = 1
 c1_5_0: x_(1,1,1,3)_0_5 = 1
 c1_5_1: x_(1,1,3,3)_1_5 = 1
 c1_5_2: x_(1,1,1,3)_2_5 = 1
 c1_5_3: x_(1,3,3,3)_3_5 = 1
 c1_5_4: x_(1,0,0,3)_4_5 + x_(1,0,2,3)_4_5 + x_(1,0,4,3)_4_5
   + x_(1,2,2,3)_4_5 + x_(1,2,4,3)_4_5 + x_(1,4,4,3)_4_5 = 1
 c1_5_5: x_(1,3,3,3)_5_5 = 1
 c1_5_6: x_(1,1,3,3)_6_5 = 1
 c1_5_7: x_(1,1,1,3)_7_5 = 1
 c1_5_8: x_(1,1,3,3)_8_5 = 1
 c1_5_9: x_(1,3,3,3)_9_5 = 1
 c1_6_0: x_(1,1,1,4)_0_6 = 1
 c1_6_1: x_(1,1,1,4)_1_6 = 1
 c1_6_2: x_(1,1,4,4)_2_6 = 1
 c1_6_3: x_(1,0,0,4)_3_6 + x_(1,0,2,4)_3_6 + x_(1,0,3,4)_3_6
   + x_(1,2,2,4)_3_6 + x_(1,2,3,4)_3_6 + x_(1,3,3,4)_3_6 = 1
 c1_6_4: x_(1,4,4,4)_4_6 = 1
 c1_6_5: x_(1,4,4,4)_5_6 = 1
 c1_6_6: x_(1,1,1,4)_6_6 = 1
 c1_6_7: x_(1,1,4,4)_7_6 = 1
 c1_6_8: x_(1,1,4,4)_8_6 = 1
 c1_6_9: x_(1,4,4,4)_9_6 = 1
 c1_7_0: x_(2,2,2,3)_0_7 = 1
 c1_7_1: x_(2,3,3,3)_1_7 = 1
 c1_7_2: x_(2,0,0,3)_2_7 + x_(2,0,1,3)_2_7 + x_(2,0,4,3)_2_7
   + x_(2,1,1,3)_2_7 + x_(2,1,4,3)_2_7 + x_(2,4,4,3)_2_7 = 1
 c1_7_3: x_(2,2,3,3)_3_7 = 1
 c1_7_4: x_(2,2,2,3)_4_7 = 1
 c1_7_5: x_(2,3,3,3)_5_7 = 1
 c1_7_6: x_(2,2,3,3)_6_7 = 1
 c1_7_7: x_(2,2,2,3)_7_7 = 1
 c1_7_8: x_(2,3,3,3)_8_7 = 1
 c1_7_9: x_(2,2,3,3)_9_7 = 1
 c1_8_0: x_(2,2,2,4)_0_8 = 1
 c1_8_1: x_(2,0,0,4)_1_8 + x_(2,0,1,4)_1_8 + x_(2,0,3,4)_1_8
   + x_(2,1,1,4)_1_8 + x_(2,1,3,4)_1_8 + x_(2,3,3,4)_1_8 = 1
 c1_8_2: x_(2,4,4,4)_2_8 = 1
 c1_8_3: x_(2,2,2,4)_3_8 = 1
 c1_8_4: x_(2,2,4,4)_4_8 = 1
 c1_8_5: x_(2,4,4,4)_5_8 = 1
 c1_8_6: x_(2,2,2,4)_6_8 = 1
 c1_8_7: x_(2,2,4,4)_7_8 = 1
 c1_8_8: x_(2,4,4,4)_8_8 = 1
 c1_8_9: x_(2,2,4,4)_9_8 = 1
 c1_9_0: x_(3,0,0,4)_0_9 + x_(3,0,1,4)_0_9 + x_(3,0,2,4)_0_9
   + x_(3,1,1,4)_0_9 + x_(3,1,2,4)_0_9 + x_(3,2,2,4)_0_9 = 1
 c1_9_1: x_(3,3,3,4)_1_9 = 1
 c1_9_2: x_(3,4,4,4)_2_9 = 1
 c1_9_3: x_(3,3,3,4)_3_9 = 1
 c1_9_4: x_(3,4,4,4)_4_9 = 1
 c1_9_5: x_(3,3,4,4)_5_9 = 1
 c1_9_6: x_(3,3,3,4)_6_9 = 1
 c1_9_7: x_(3,4,4,4)_7_9 = 1
 c1_9_8: x_(3,3,4,4)_8_9 = 1
 c1_9_9: x_(3,3,4,4)_9_9 = 1
 c2: y0 + y1 + y2 + y3 + y4 + y5 + y6 + y7 + y8 + y9 = 1
 c3_0: - 10 y0 + x_(0,0,1,1)_0_0 + x_(0,0,2,2)_0_1 + x_(0,0,0,3)_0_2
   + x_(0,0,0,4)_0_3 + x_(1,1,2,2)_0_4 + x_(1,1,1,3)_0_5 + x_(1,1,1,4)_0_6
   + x_(2,2,2,3)_0_7 + x_(2,2,2,4)_0_8 + x_(3,0,0,4)_0_9 + x_(3,0,1,4)_0_9
   + x_(3,0,2,4)_0_9 + x_(3,1,1,4)_0_9 + x_(3,1,2,4)_0_9 + x_(3,2,2,4)_0_9
   <= 0
 c3_1: - 10 y1 + x_(0,0,1,1)_1_0 + x_(0,0,0,2)_1_1 + x_(0,0,3,3)_1_2
   + x_(0,0,0,4)_1_3 + x_(1,1,1,2)_1_4 + x_(1,1,3,3)_1_5 + x_(1,1,1,4)_1_6
   + x_(2,3,3,3)_1_7 + x_(2,0,0,4)_1_8 + x_(2,0,1,4)_1_8 + x_(2,0,3,4)_1_8
   + x_(2,1,1,4)_1_8 + x_(2,1,3,4)_1_8 + x_(2,3,3,4)_1_8 + x_(3,3,3,4)_1_9
   <= 0
 c3_2: - 10 y2 + x_(0,0,1,1)_2_0 + x_(0,0,0,2)_2_1 + x_(0,0,0,3)_2_2
   + x_(0,0,4,4)_2_3 + x_(1,1,1,2)_2_4 + x_(1,1,1,3)_2_5 + x_(1,1,4,4)_2_6
   + x_(2,0,0,3)_2_7 + x_(2,0,1,3)_2_7 + x_(2,0,4,3)_2_7 + x_(2,1,1,3)_2_7
   + x_(2,1,4,3)_2_7 + x_(2,4,4,3)_2_7 + x_(2,4,4,4)_2_8 + x_(3,4,4,4)_2_9
   <= 0
 c3_3: - 10 y3 + x_(0,0,0,1)_3_0 + x_(0,0,2,2)_3_1 + x_(0,0,3,3)_3_2
   + x_(0,0,0,4)_3_3 + x_(1,2,2,2)_3_4 + x_(1,3,3,3)_3_5 + x_(1,0,0,4)_3_6
   + x_(1,0,2,4)_3_6 + x_(1,0,3,4)_3_6 + x_(1,2,2,4)_3_6 + x_(1,2,3,4)_3_6
   + x_(1,3,3,4)_3_6 + x_(2,2,3,3)_3_7 + x_(2,2,2,4)_3_8 + x_(3,3,3,4)_3_9
   <= 0
 c3_4: - 10 y4 + x_(0,0,0,1)_4_0 + x_(0,0,2,2)_4_1 + x_(0,0,0,3)_4_2
   + x_(0,0,4,4)_4_3 + x_(1,2,2,2)_4_4 + x_(1,0,0,3)_4_5 + x_(1,0,2,3)_4_5
   + x_(1,0,4,3)_4_5 + x_(1,2,2,3)_4_5 + x_(1,2,4,3)_4_5 + x_(1,4,4,3)_4_5
   + x_(1,4,4,4)_4_6 + x_(2,2,2,3)_4_7 + x_(2,2,4,4)_4_8 + x_(3,4,4,4)_4_9
   <= 0
 c3_5: - 10 y5 + x_(0,0,0,1)_5_0 + x_(0,0,0,2)_5_1 + x_(0,0,3,3)_5_2
   + x_(0,0,4,4)_5_3 + x_(1,0,0,2)_5_4 + x_(1,0,3,2)_5_4 + x_(1,0,4,2)_5_4
   + x_(1,3,3,2)_5_4 + x_(1,3,4,2)_5_4 + x_(1,4,4,2)_5_4 + x_(1,3,3,3)_5_5
   + x_(1,4,4,4)_5_6 + x_(2,3,3,3)_5_7 + x_(2,4,4,4)_5_8 + x_(3,3,4,4)_5_9
   <= 0
 c3_6: - 10 y6 + x_(0,1,1,1)_6_0 + x_(0,2,2,2)_6_1 + x_(0,3,3,3)_6_2
   + x_(0,1,1,4)_6_3 + x_(0,1,2,4)_6_3 + x_(0,1,3,4)_6_3 + x_(0,2,2,4)_6_3
   + x_(0,2,3,4)_6_3 + x_(0,3,3,4)_6_3 + x_(1,1,2,2)_6_4 + x_(1,1,3,3)_6_5
   + x_(1,1,1,4)_6_6 + x_(2,2,3,3)_6_7 + x_(2,2,2,4)_6_8 + x_(3,3,3,4)_6_9
   <= 0
 c3_7: - 10 y7 + x_(0,1,1,1)_7_0 + x_(0,2,2,2)_7_1 + x_(0,1,1,3)_7_2
   + x_(0,1,2,3)_7_2 + x_(0,1,4,3)_7_2 + x_(0,2,2,3)_7_2 + x_(0,2,4,3)_7_2
   + x_(0,4,4,3)_7_2 + x_(0,4,4,4)_7_3 + x_(1,1,2,2)_7_4 + x_(1,1,1,3)_7_5
   + x_(1,1,4,4)_7_6 + x_(2,2,2,3)_7_7 + x_(2,2,4,4)_7_8 + x_(3,4,4,4)_7_9
   <= 0
 c3_8: - 10 y8 + x_(0,1,1,1)_8_0 + x_(0,1,1,2)_8_1 + x_(0,1,3,2)_8_1
   + x_(0,1,4,2)_8_1 + x_(0,3,3,2)_8_1 + x_(0,3,4,2)_8_1 + x_(0,4,4,2)_8_1
   + x_(0,3,3,3)_8_2 + x_(0,4,4,4)_8_3 + x_(1,1,1,2)_8_4 + x_(1,1,3,3)_8_5
   + x_(1,1,4,4)_8_6 + x_(2,3,3,3)_8_7 + x_(2,4,4,4)_8_8 + x_(3,3,4,4)_8_9
   <= 0
 c3_9: - 10 y9 + x_(0,2,2,1)_9_0 + x_(0,2,3,1)_9_0 + x_(0,2,4,1)_9_0
   + x_(0,3,3,1)_9_0 + x_(0,3,4,1)_9_0 + x_(0,4,4,1)_9_0 + x_(0,2,2,2)_9_1
   + x_(0,3,3,3)_9_2 + x_(0,4,4,4)_9_3 + x_(1,2,2,2)_9_4 + x_(1,3,3,3)_9_5
   + x_(1,4,4,4)_9_6 + x_(2,2,3,3)_9_7 + x_(2,2,4,4)_9_8 + x_(3,3,4,4)_9_9
   <= 0
Bounds
 x_(0,0,1,1)_0_0 <= 1
 x_(0,0,1,1)_1_0 <= 1
 x_(0,0,1,1)_2_0 <= 1
 x_(0,0,0,1)_3_0 <= 1
 x_(0,0,0,1)_4_0 <= 1
 x_(0,0,0,1)_5_0 <= 1
 x_(0,1,1,1)_6_0 <= 1
 x_(0,1,1,1)_7_0 <= 1
 x_(0,1,1,1)_8_0 <= 1
 x_(0,2,2,1)_9_0 <= 1
 x_(0,2,3,1)_9_0 <= 1
 x_(0,2,4,1)_9_0 <= 1
 x_(0,3,3,1)_9_0 <= 1
 x_(0,3,4,1)_9_0 <= 1
 x_(0,4,4,1)_9_0 <= 1
 x_(0,0,2,2)_0_1 <= 1
 x_(0,0,0,2)_1_1 <= 1
 x_(0,0,0,2)_2_1 <= 1
 x_(0,0,2,2)_3_1 <= 1
 x_(0,0,2,2)_4_1 <= 1
 x_(0,0,0,2)_5_1 <= 1
 x_(0,2,2,2)_6_1 <= 1
 x_(0,2,2,2)_7_1 <= 1
 x_(0,1,1,2)_8_1 <= 1
 x_(0,1,3,2)_8_1 <= 1
 x_(0,1,4,2)_8_1 <= 1
 x_(0,3,3,2)_8_1 <= 1
 x_(0,3,4,2)_8_1 <= 1
 x_(0,4,4,2)_8_1 <= 1
 x_(0,2,2,2)_9_1 <= 1
 x_(0,0,0,3)_0_2 <= 1
 x_(0,0,3,3)_1_2 <= 1
 x_(0,0,0,3)_2_2 <= 1
 x_(0,0,3,3)_3_2 <= 1
 x_(0,0,0,3)_4_2 <= 1
 x_(0,0,3,3)_5_2 <= 1
 x_(0,3,3,3)_6_2 <= 1
 x_(0,1,1,3)_7_2 <= 1
 x_(0,1,2,3)_7_2 <= 1
 x_(0,1,4,3)_7_2 <= 1
 x_(0,2,2,3)_7_2 <= 1
 x_(0,2,4,3)_7_2 <= 1
 x_(0,4,4,3)_7_2 <= 1
 x_(0,3,3,3)_8_2 <= 1
 x_(0,3,3,3)_9_2 <= 1
 x_(0,0,0,4)_0_3 <= 1
 x_(0,0,0,4)_1_3 <= 1
 x_(0,0,4,4)_2_3 <= 1
 x_(0,0,0,4)_3_3 <= 1
 x_(0,0,4,4)_4_3 <= 1
 x_(0,0,4,4)_5_3 <= 1
 x_(0,1,1,4)_6_3 <= 1
 x_(0,1,2,4)_6_3 <= 1
 x_(0,1,3,4)_6_3 <= 1
 x_(0,2,2,4)_6_3 <= 1
 x_(0,2,3,4)_6_3 <= 1
 x_(0,3,3,4)_6_3 <= 1
 x_(0,4,4,4)_7_3 <= 1
 x_(0,4,4,4)_8_3 <= 1
 x_(0,4,4,4)_9_3 <= 1
 x_(1,1,2,2)_0_4 <= 1
 x_(1,1,1,2)_1_4 <= 1
 x_(1,1,1,2)_2_4 <= 1
 x_(1,2,2,2)_3_4 <= 1
 x_(1,2,2,2)_4_4 <= 1
 x_(1,0,0,2)_5_4 <= 1
 x_(1,0,3,2)_5_4 <= 1
 x_(1,0,4,2)_5_4 <= 1
 x_(1,3,3,2)_5_4 <= 1
 x_(1,3,4,2)_5_4 <= 1
 x_(1,4,4,2)_5_4 <= 1
 x_(1,1,2,2)_6_4 <= 1
 x_(1,1,2,2)_7_4 <= 1
 x_(1,1,1,2)_8_4 <= 1
 x_(1,2,2,2)_9_4 <= 1
 x_(1,1,1,3)_0_5 <= 1
 x_(1,1,3,3)_1_5 <= 1
 x_(1,1,1,3)_2_5 <= 1
 x_(1,3,3,3)_3_5 <= 1
 x_(1,0,0,3)_4_5 <= 1
 x_(1,0,2,3)_4_5 <= 1
 x_(1,0,4,3)_4_5 <= 1
 x_(1,2,2,3)_4_5 <= 1
 x_(1,2,4,3)_4_5 <= 1
 x_(1,4,4,3)_4_5 <= 1
 x_(1,3,3,3)_5_5 <= 1
 x_(1,1,3,3)_6_5 <= 1
 x_(1,1,1,3)_7_5 <= 1
 x_(1,1,3,3)_8_5 <= 1
 x_(1,3,3,3)_9_5 <= 1
 x_(1,1,1,4)_0_6 <= 1
 x_(1,1,1,4)_1_6 <= 1
 x_(1,1,4,4)_2_6 <= 1
 x_(1,0,0,4)_3_6 <= 1
 x_(1,0,2,4)_3_6 <= 1
 x_(1,0,3,4)_3_6 <= 1
 x_(1,2,2,4)_3_6 <= 1
 x_(1,2,3,4)_3_6 <= 1
 x_(1,3,3,4)_3_6 <= 1
 x_(1,4,4,4)_4_6 <= 1
 x_(1,4,4,4)_5_6 <= 1
 x_(1,1,1,4)_6_6 <= 1
 x_(1,1,4,4)_7_6 <= 1
 x_(1,1,4,4)_8_6 <= 1
 x_(1,4,4,4)_9_6 <= 1
 x_(2,2,2,3)_0_7 <= 1
 x_(2,3,3,3)_1_7 <= 1
 x_(2,0,0,3)_2_7 <= 1
 x_(2,0,1,3)_2_7 <= 1
 x_(2,0,4,3)_2_7 <= 1
 x_(2,1,1,3)_2_7 <= 1
 x_(2,1,4,3)_2_7 <= 1
 x_(2,4,4,3)_2_7 <= 1
 x_(2,2,3,3)_3_7 <= 1
 x_(2,2,2,3)_4_7 <= 1
 x_(2,3,3,3)_5_7 <= 1
 x_(2,2,3,3)_6_7 <= 1
 x_(2,2,2,3)_7_7 <= 1
 x_(2,3,3,3)_8_7 <= 1
 x_(2,2,3,3)_9_7 <= 1
 x_(2,2,2,4)_0_8 <= 1
 x_(2,0,0,4)_1_8 <= 1
 x_(2,0,1,4)_1_8 <= 1
 x_(2,0,3,4)_1_8 <= 1
 x_(2,1,1,4)_1_8 <= 1
 x_(2,1,3,4)_1_8 <= 1
 x_(2,3,3,4)_1_8 <= 1
 x_(2,4,4,4)_2_8 <= 1
 x_(2,2,2,4)_3_8 <= 1
 x_(2,2,4,4)_4_8 <= 1
 x_(2,4,4,4)_5_8 <= 1
 x_(2,2,2,4)_6_8 <= 1
 x_(2,2,4,4)_7_8 <= 1
 x_(2,4,4,4)_8_8 <= 1
 x_(2,2,4,4)_9_8 <= 1
 x_(3,0,0,4)_0_9 <= 1
 x_(3,0,1,4)_0_9 <= 1
 x_(3,0,2,4)_0_9 <= 1
 x_(3,1,1,4)_0_9 <= 1
 x_(3,1,2,4)_0_9 <= 1
 x_(3,2,2,4)_0_9 <= 1
 x_(3,3,3,4)_1_9 <= 1
 x_(3,4,4,4)_2_9 <= 1
 x_(3,3,3,4)_3_9 <= 1
 x_(3,4,4,4)_4_9 <= 1
 x_(3,3,4,4)_5_9 <= 1
 x_(3,3,3,4)_6_9 <= 1
 x_(3,4,4,4)_7_9 <= 1
 x_(3,3,4,4)_8_9 <= 1
 x_(3,3,4,4)_9_9 <= 1
Binaries
 y0 y1 y2 y3 y4 y5 y6 y7 y8 y9
End
